193277.0
3807
0 2 4 5 6 7 8 9 10 13 15 16 19 20 21 22 23 24 25 27 29 31 32 33 34 35 36 37 38 39 40 41 43 44 45 47 49 50 51 52 54 55 56 58 59 60 61 64 65 66 67 68 70 71 74 75 76 77 78 79 80 81 82 83 85 86 87 89 90 91 92 93 94 96 97 98 99 100 101 102 103 104 105 106 107 108 109 110 111 112 115 117 118 120 121 122 123 124 125 128 129 131 132 139 141 143 144 145 147 148 151 152 154 155 156 159 160 161 165 166 169 170 171 173 175 176 177 178 179 180 182 183 184 186 187 188 189 191 192 193 196 198 199 